Route #1: 31 8 28 15 27 19 24
Route #2: 7
Route #3: 2 41 36 9 38 14
Route #4: 4 34 39 17 12 3 6 22
Route #5: 25 29 40 23 30 26
Route #6: 33 10 11 37 42 32 21 5
Route #7: 13 43 35 1 18 20 16
cost: 1038.0078222297718
